
Gurobi 5.6.0 (mac64) logging started Sat Nov 15 19:29:53 2014


Gurobi 5.6.0 (mac64) logging started Sat Nov 15 20:59:48 2014


Gurobi 5.6.0 (mac64) logging started Sat Nov 15 21:00:52 2014


Gurobi 5.6.0 (mac64) logging started Sat Nov 15 21:01:11 2014


Gurobi 5.6.0 (mac64) logging started Sat Nov 15 21:04:43 2014


Gurobi 5.6.0 (mac64) logging started Sat Nov 15 21:06:19 2014


Gurobi 5.6.0 (mac64) logging started Sat Nov 15 21:06:38 2014


Gurobi 5.6.0 (mac64) logging started Sat Nov 15 21:06:53 2014


Gurobi 5.6.0 (mac64) logging started Sat Nov 15 21:07:20 2014


Gurobi 5.6.0 (mac64) logging started Sat Nov 15 21:07:41 2014


Gurobi 5.6.0 (mac64) logging started Sat Nov 15 21:08:10 2014


Gurobi 5.6.0 (mac64) logging started Sat Nov 15 21:09:05 2014


Gurobi 5.6.0 (mac64) logging started Sat Nov 15 21:09:25 2014


Gurobi 5.6.0 (mac64) logging started Sat Nov 15 21:10:11 2014


Gurobi 5.6.0 (mac64) logging started Sat Nov 15 21:10:33 2014


Gurobi 5.6.0 (mac64) logging started Sat Nov 15 21:10:50 2014


Gurobi 5.6.0 (mac64) logging started Sat Nov 15 21:12:34 2014


Gurobi 5.6.0 (mac64) logging started Sat Nov 15 21:12:49 2014


Gurobi 5.6.0 (mac64) logging started Sat Nov 15 21:12:59 2014


Gurobi 5.6.0 (mac64) logging started Sat Nov 15 21:17:25 2014


Gurobi 5.6.0 (mac64) logging started Sat Nov 15 21:17:57 2014


Gurobi 5.6.0 (mac64) logging started Sat Nov 15 21:19:50 2014


Gurobi 5.6.0 (mac64) logging started Sat Nov 15 21:20:08 2014


Gurobi 5.6.0 (mac64) logging started Sat Nov 15 21:20:24 2014


Gurobi 5.6.0 (mac64) logging started Sat Nov 15 21:22:21 2014


Gurobi 5.6.0 (mac64) logging started Sat Nov 15 21:23:09 2014


Gurobi 5.6.0 (mac64) logging started Sat Nov 15 21:24:08 2014


Gurobi 5.6.0 (mac64) logging started Sat Nov 15 21:24:59 2014


Gurobi 5.6.0 (mac64) logging started Sat Nov 15 21:26:27 2014


Gurobi 5.6.0 (mac64) logging started Sat Nov 15 21:28:39 2014


Gurobi 5.6.0 (mac64) logging started Sat Nov 15 21:29:13 2014


Gurobi 5.6.0 (mac64) logging started Sat Nov 15 21:31:16 2014


Gurobi 5.6.0 (mac64) logging started Sat Nov 15 21:33:35 2014


Gurobi 5.6.0 (mac64) logging started Sat Nov 15 21:34:11 2014


Gurobi 5.6.0 (mac64) logging started Sat Nov 15 21:37:43 2014


Gurobi 5.6.0 (mac64) logging started Sat Nov 15 21:38:56 2014


Gurobi 5.6.0 (mac64) logging started Sat Nov 15 21:39:40 2014


Gurobi 5.6.0 (mac64) logging started Sat Nov 15 21:44:06 2014


Gurobi 5.6.0 (mac64) logging started Sat Nov 15 21:44:33 2014


Gurobi 5.6.0 (mac64) logging started Sat Nov 15 21:45:09 2014


Gurobi 5.6.0 (mac64) logging started Sat Nov 15 21:45:29 2014


Gurobi 5.6.0 (mac64) logging started Sat Nov 15 21:47:11 2014


Gurobi 5.6.0 (mac64) logging started Sat Nov 15 21:47:29 2014


Gurobi 5.6.0 (mac64) logging started Sat Nov 15 21:47:49 2014


Gurobi 5.6.0 (mac64) logging started Sat Nov 15 21:48:16 2014


Gurobi 5.6.0 (mac64) logging started Sat Nov 15 21:48:57 2014


Gurobi 5.6.0 (mac64) logging started Sat Nov 15 21:49:15 2014


Gurobi 5.6.0 (mac64) logging started Sat Nov 15 21:50:53 2014


Gurobi 5.6.0 (mac64) logging started Sat Nov 15 21:52:33 2014


Gurobi 5.6.0 (mac64) logging started Sat Nov 15 21:52:56 2014


Gurobi 5.6.0 (mac64) logging started Sun Nov 16 01:33:11 2014


Gurobi 5.6.0 (mac64) logging started Sun Nov 16 01:33:38 2014


Gurobi 5.6.0 (mac64) logging started Sun Nov 16 01:36:12 2014


Gurobi 5.6.0 (mac64) logging started Sun Nov 16 01:36:33 2014


Gurobi 5.6.0 (mac64) logging started Sun Nov 16 03:09:20 2014


Gurobi 5.6.0 (mac64) logging started Sun Nov 16 03:11:31 2014


Gurobi 5.6.0 (mac64) logging started Sun Nov 16 03:11:47 2014


Gurobi 5.6.0 (mac64) logging started Sun Nov 16 03:12:17 2014


Gurobi 5.6.0 (mac64) logging started Sun Nov 16 03:12:50 2014


Gurobi 5.6.0 (mac64) logging started Sun Nov 16 03:17:47 2014


Gurobi 5.6.0 (mac64) logging started Sun Nov 16 03:20:23 2014


Gurobi 5.6.0 (mac64) logging started Sun Nov 16 03:20:32 2014


Gurobi 5.6.0 (mac64) logging started Sun Nov 16 03:21:58 2014


Gurobi 5.6.0 (mac64) logging started Sun Nov 16 03:22:39 2014


Gurobi 5.6.0 (mac64) logging started Sun Nov 16 03:23:02 2014


Gurobi 5.6.0 (mac64) logging started Sun Nov 16 03:24:02 2014


Gurobi 5.6.0 (mac64) logging started Sun Nov 16 03:24:22 2014


Gurobi 5.6.0 (mac64) logging started Sun Nov 16 03:28:00 2014


Gurobi 5.6.0 (mac64) logging started Sun Nov 16 03:28:09 2014


Gurobi 5.6.0 (mac64) logging started Sun Nov 16 03:29:20 2014


Gurobi 5.6.0 (mac64) logging started Sun Nov 16 03:33:33 2014


Gurobi 5.6.0 (mac64) logging started Sun Nov 16 03:35:00 2014


Gurobi 5.6.0 (mac64) logging started Sun Nov 16 03:35:20 2014


Gurobi 5.6.0 (mac64) logging started Sun Nov 16 03:35:40 2014


Gurobi 5.6.0 (mac64) logging started Sun Nov 16 03:38:10 2014


Gurobi 5.6.0 (mac64) logging started Sun Nov 16 03:39:32 2014


Gurobi 5.6.0 (mac64) logging started Sun Nov 16 03:40:28 2014


Gurobi 5.6.0 (mac64) logging started Sun Nov 16 03:40:33 2014


Gurobi 5.6.0 (mac64) logging started Sun Nov 16 03:41:14 2014


Gurobi 5.6.0 (mac64) logging started Sun Nov 16 03:42:07 2014


Gurobi 5.6.0 (mac64) logging started Thu Nov 20 01:43:55 2014


Gurobi 5.6.0 (mac64) logging started Thu Nov 20 02:16:08 2014


Gurobi 5.6.0 (mac64) logging started Thu Nov 20 02:23:42 2014


Gurobi 5.6.0 (mac64) logging started Thu Nov 20 02:24:41 2014


Gurobi 5.6.0 (mac64) logging started Thu Nov 20 02:24:53 2014


Gurobi 5.6.0 (mac64) logging started Thu Nov 20 02:25:09 2014


Gurobi 5.6.0 (mac64) logging started Thu Nov 20 02:26:23 2014

